(set-info :smt-lib-version 2.6)
(set-logic UFNIA)
(set-info :source |
Generated by: Geoff Sutcliffe
Generated on: 2026-03-11
Generator: TPTPWorld
Application: Benchmarking automated theorem provers
Time limit: 120.0

These benchmarks are translations from the TPTP Library (Thousands of
Problems for Theorem Provers), see http://www.cs.miami.edu/~tptp/

The TPTP is maintained by Geoff Sutcliffe, and he contributed this
selection of benchmarks to SMT-LIB.  They were exported from the
v9.2.1 realease of TPTP.
|)
(set-info :category "industrial")
(set-info :status "unknown")
; SZS status Success
(declare-sort $$unsorted 0)
(declare-sort tptp.uni 0)
(declare-sort tptp.ty 0)
(declare-fun tptp.sort (tptp.ty tptp.uni) Bool)
(declare-fun tptp.witness (tptp.ty) tptp.uni)
(assert (forall ((A tptp.ty)) (tptp.sort A (tptp.witness A))))
(declare-fun tptp.int () tptp.ty)
(declare-fun tptp.real () tptp.ty)
(declare-sort tptp.bool 0)
(declare-fun tptp.bool1 () tptp.ty)
(declare-fun tptp.true () tptp.bool)
(declare-fun tptp.false () tptp.bool)
(declare-fun tptp.match_bool (tptp.ty tptp.bool tptp.uni tptp.uni) tptp.uni)
(assert (forall ((A tptp.ty) (X tptp.bool) (X1 tptp.uni) (X2 tptp.uni)) (tptp.sort A (tptp.match_bool A X X1 X2))))
(assert (forall ((A tptp.ty) (Z tptp.uni) (Z1 tptp.uni)) (=> (tptp.sort A Z) (= (tptp.match_bool A tptp.true Z Z1) Z))))
(assert (forall ((A tptp.ty) (Z tptp.uni) (Z1 tptp.uni)) (=> (tptp.sort A Z1) (= (tptp.match_bool A tptp.false Z Z1) Z1))))
(assert (not (= tptp.true tptp.false)))
(assert (forall ((U tptp.bool)) (or (= U tptp.true) (= U tptp.false))))
(declare-sort tptp.tuple0 0)
(declare-fun tptp.tuple01 () tptp.ty)
(declare-fun tptp.tuple02 () tptp.tuple0)
(assert (forall ((U tptp.tuple0)) (= U tptp.tuple02)))
(declare-fun tptp.qtmark () tptp.ty)
(assert (forall ((X Int) (Y Int) (Z Int)) (=> (<= X Y) (=> (<= 0 Z) (<= (* X Z) (* Y Z))))))
(declare-fun tptp.list (tptp.ty) tptp.ty)
(declare-fun tptp.nil (tptp.ty) tptp.uni)
(assert (forall ((A tptp.ty)) (tptp.sort (tptp.list A) (tptp.nil A))))
(declare-fun tptp.cons (tptp.ty tptp.uni tptp.uni) tptp.uni)
(assert (forall ((A tptp.ty) (X tptp.uni) (X1 tptp.uni)) (tptp.sort (tptp.list A) (tptp.cons A X X1))))
(declare-fun tptp.match_list (tptp.ty tptp.ty tptp.uni tptp.uni tptp.uni) tptp.uni)
(assert (forall ((A tptp.ty) (A1 tptp.ty) (X tptp.uni) (X1 tptp.uni) (X2 tptp.uni)) (tptp.sort A1 (tptp.match_list A1 A X X1 X2))))
(assert (forall ((A tptp.ty) (A1 tptp.ty) (Z tptp.uni) (Z1 tptp.uni)) (=> (tptp.sort A1 Z) (= (tptp.match_list A1 A (tptp.nil A) Z Z1) Z))))
(assert (forall ((A tptp.ty) (A1 tptp.ty) (Z tptp.uni) (Z1 tptp.uni) (U tptp.uni) (U1 tptp.uni)) (=> (tptp.sort A1 Z1) (= (tptp.match_list A1 A (tptp.cons A U U1) Z Z1) Z1))))
(assert (forall ((A tptp.ty) (V tptp.uni) (V1 tptp.uni)) (not (= (tptp.nil A) (tptp.cons A V V1)))))
(declare-fun tptp.cons_proj_1 (tptp.ty tptp.uni) tptp.uni)
(assert (forall ((A tptp.ty) (X tptp.uni)) (tptp.sort A (tptp.cons_proj_1 A X))))
(assert (forall ((A tptp.ty) (U tptp.uni) (U1 tptp.uni)) (=> (tptp.sort A U) (= (tptp.cons_proj_1 A (tptp.cons A U U1)) U))))
(declare-fun tptp.cons_proj_2 (tptp.ty tptp.uni) tptp.uni)
(assert (forall ((A tptp.ty) (X tptp.uni)) (tptp.sort (tptp.list A) (tptp.cons_proj_2 A X))))
(assert (forall ((A tptp.ty) (U tptp.uni) (U1 tptp.uni)) (= (tptp.cons_proj_2 A (tptp.cons A U U1)) U1)))
(assert (forall ((A tptp.ty) (U tptp.uni)) (or (= U (tptp.nil A)) (= U (tptp.cons A (tptp.cons_proj_1 A U) (tptp.cons_proj_2 A U))))))
(declare-fun tptp.length (tptp.ty tptp.uni) Int)
(assert (forall ((A tptp.ty)) (and (= (tptp.length A (tptp.nil A)) 0) (forall ((X tptp.uni) (X1 tptp.uni)) (= (tptp.length A (tptp.cons A X X1)) (+ 1 (tptp.length A X1)))))))
(assert (forall ((A tptp.ty) (L tptp.uni)) (<= 0 (tptp.length A L))))
(assert (forall ((A tptp.ty) (L tptp.uni)) (= (= (tptp.length A L) 0) (= L (tptp.nil A)))))
(declare-fun tptp.infix_plpl (tptp.ty tptp.uni tptp.uni) tptp.uni)
(assert (forall ((A tptp.ty) (X tptp.uni) (X1 tptp.uni)) (tptp.sort (tptp.list A) (tptp.infix_plpl A X X1))))
(assert (forall ((A tptp.ty) (L2 tptp.uni)) (and (= (tptp.infix_plpl A (tptp.nil A) L2) L2) (forall ((X tptp.uni) (X1 tptp.uni)) (= (tptp.infix_plpl A (tptp.cons A X X1) L2) (tptp.cons A X (tptp.infix_plpl A X1 L2)))))))
(assert (forall ((A tptp.ty) (L1 tptp.uni) (L2 tptp.uni) (L3 tptp.uni)) (= (tptp.infix_plpl A L1 (tptp.infix_plpl A L2 L3)) (tptp.infix_plpl A (tptp.infix_plpl A L1 L2) L3))))
(assert (forall ((A tptp.ty) (L tptp.uni)) (= (tptp.infix_plpl A L (tptp.nil A)) L)))
(assert (forall ((A tptp.ty) (L1 tptp.uni) (L2 tptp.uni)) (= (tptp.length A (tptp.infix_plpl A L1 L2)) (+ (tptp.length A L1) (tptp.length A L2)))))
(declare-fun tptp.mem (tptp.ty tptp.uni tptp.uni) Bool)
(assert (forall ((A tptp.ty) (X tptp.uni)) (=> (tptp.sort A X) (and (not (tptp.mem A X (tptp.nil A))) (forall ((X1 tptp.uni) (X2 tptp.uni)) (=> (tptp.sort A X1) (= (tptp.mem A X (tptp.cons A X1 X2)) (or (= X X1) (tptp.mem A X X2)))))))))
(assert (forall ((A tptp.ty) (X tptp.uni) (L1 tptp.uni) (L2 tptp.uni)) (= (tptp.mem A X (tptp.infix_plpl A L1 L2)) (or (tptp.mem A X L1) (tptp.mem A X L2)))))
(assert (forall ((A tptp.ty) (X tptp.uni) (L tptp.uni)) (=> (tptp.mem A X L) (exists ((L1 tptp.uni) (L2 tptp.uni)) (let ((_let_1 (tptp.list A))) (and (tptp.sort _let_1 L1) (tptp.sort _let_1 L2) (= L (tptp.infix_plpl A L1 (tptp.cons A X L2)))))))))
(declare-fun tptp.num_occ (tptp.ty tptp.uni tptp.uni) Int)
(assert (forall ((A tptp.ty) (X tptp.uni)) (=> (tptp.sort A X) (and (= (tptp.num_occ A X (tptp.nil A)) 0) (forall ((X1 tptp.uni) (X2 tptp.uni)) (let ((_let_1 (tptp.num_occ A X X2))) (let ((_let_2 (tptp.num_occ A X (tptp.cons A X1 X2)))) (let ((_let_3 (= X X1))) (=> (tptp.sort A X1) (and (=> _let_3 (= _let_2 (+ 1 _let_1))) (=> (not _let_3) (= _let_2 (+ 0 _let_1)))))))))))))
(assert (forall ((A tptp.ty) (X tptp.uni) (L tptp.uni)) (= (tptp.mem A X L) (< 0 (tptp.num_occ A X L)))))
(assert (forall ((A tptp.ty) (X tptp.uni) (L1 tptp.uni) (L2 tptp.uni)) (= (tptp.num_occ A X (tptp.infix_plpl A L1 L2)) (+ (tptp.num_occ A X L1) (tptp.num_occ A X L2)))))
(declare-fun tptp.reverse (tptp.ty tptp.uni) tptp.uni)
(assert (forall ((A tptp.ty) (X tptp.uni)) (tptp.sort (tptp.list A) (tptp.reverse A X))))
(assert (forall ((A tptp.ty)) (let ((_let_1 (tptp.nil A))) (and (= (tptp.reverse A _let_1) _let_1) (forall ((X tptp.uni) (X1 tptp.uni)) (= (tptp.reverse A (tptp.cons A X X1)) (tptp.infix_plpl A (tptp.reverse A X1) (tptp.cons A X (tptp.nil A)))))))))
(assert (forall ((A tptp.ty) (L1 tptp.uni) (L2 tptp.uni) (X tptp.uni)) (= (tptp.infix_plpl A (tptp.reverse A (tptp.cons A X L1)) L2) (tptp.infix_plpl A (tptp.reverse A L1) (tptp.cons A X L2)))))
(assert (forall ((A tptp.ty) (L tptp.uni) (X tptp.uni)) (= (tptp.reverse A (tptp.cons A X L)) (tptp.infix_plpl A (tptp.reverse A L) (tptp.cons A X (tptp.nil A))))))
(assert (forall ((A tptp.ty) (L tptp.uni)) (= (tptp.reverse A (tptp.reverse A L)) L)))
(assert (forall ((A tptp.ty) (L tptp.uni) (X tptp.uni)) (= (tptp.mem A X L) (tptp.mem A X (tptp.reverse A L)))))
(assert (forall ((A tptp.ty) (L tptp.uni)) (= (tptp.length A (tptp.reverse A L)) (tptp.length A L))))
(assert (forall ((A tptp.ty) (X tptp.uni) (L tptp.uni)) (= (tptp.num_occ A X L) (tptp.num_occ A X (tptp.reverse A L)))))
(declare-fun tptp.permut (tptp.ty tptp.uni tptp.uni) Bool)
(assert (forall ((A tptp.ty) (L1 tptp.uni) (L2 tptp.uni)) (let ((_let_1 (tptp.permut A L1 L2))) (and (=> _let_1 (forall ((X tptp.uni)) (= (tptp.num_occ A X L1) (tptp.num_occ A X L2)))) (=> (forall ((X tptp.uni)) (=> (tptp.sort A X) (= (tptp.num_occ A X L1) (tptp.num_occ A X L2)))) _let_1)))))
(assert (forall ((A tptp.ty) (L tptp.uni)) (tptp.permut A L L)))
(assert (forall ((A tptp.ty) (L1 tptp.uni) (L2 tptp.uni)) (=> (tptp.permut A L1 L2) (tptp.permut A L2 L1))))
(assert (forall ((A tptp.ty) (L1 tptp.uni) (L2 tptp.uni) (L3 tptp.uni)) (=> (tptp.permut A L1 L2) (=> (tptp.permut A L2 L3) (tptp.permut A L1 L3)))))
(assert (forall ((A tptp.ty) (X tptp.uni) (L1 tptp.uni) (L2 tptp.uni)) (=> (tptp.permut A L1 L2) (tptp.permut A (tptp.cons A X L1) (tptp.cons A X L2)))))
(assert (forall ((A tptp.ty) (X tptp.uni) (Y tptp.uni) (L tptp.uni)) (tptp.permut A (tptp.cons A X (tptp.cons A Y L)) (tptp.cons A Y (tptp.cons A X L)))))
(assert (forall ((A tptp.ty) (X tptp.uni) (L1 tptp.uni) (L2 tptp.uni)) (tptp.permut A (tptp.infix_plpl A (tptp.cons A X L1) L2) (tptp.infix_plpl A L1 (tptp.cons A X L2)))))
(assert (forall ((A tptp.ty) (L1 tptp.uni) (L2 tptp.uni) (L3 tptp.uni)) (tptp.permut A (tptp.infix_plpl A (tptp.infix_plpl A L1 L2) L3) (tptp.infix_plpl A L1 (tptp.infix_plpl A L2 L3)))))
(assert (forall ((A tptp.ty) (L1 tptp.uni) (L2 tptp.uni) (K1 tptp.uni) (K2 tptp.uni)) (=> (tptp.permut A L1 K1) (=> (tptp.permut A L2 K2) (tptp.permut A (tptp.infix_plpl A L1 L2) (tptp.infix_plpl A K1 K2))))))
(assert (forall ((A tptp.ty) (L1 tptp.uni) (L2 tptp.uni)) (tptp.permut A (tptp.infix_plpl A L1 L2) (tptp.infix_plpl A L2 L1))))
(assert (forall ((A tptp.ty) (X tptp.uni) (L1 tptp.uni) (L2 tptp.uni)) (=> (tptp.permut A L1 L2) (=> (tptp.mem A X L1) (tptp.mem A X L2)))))
(assert (forall ((A tptp.ty) (L1 tptp.uni) (L2 tptp.uni)) (=> (tptp.permut A L1 L2) (= (tptp.length A L1) (tptp.length A L2)))))
(declare-sort tptp.elt 0)
(declare-fun tptp.elt1 () tptp.ty)
(declare-fun tptp.le (tptp.elt tptp.elt) Bool)
(assert (forall ((X tptp.elt)) (tptp.le X X)))
(assert (forall ((X tptp.elt) (Y tptp.elt) (Z tptp.elt)) (=> (tptp.le X Y) (=> (tptp.le Y Z) (tptp.le X Z)))))
(assert (forall ((X tptp.elt) (Y tptp.elt)) (or (tptp.le X Y) (tptp.le Y X))))
(declare-sort tptp.list_elt 0)
(declare-fun tptp.sorted (tptp.list_elt) Bool)
(declare-fun tptp.t2tb (tptp.list_elt) tptp.uni)
(assert (forall ((X tptp.list_elt)) (tptp.sort (tptp.list tptp.elt1) (tptp.t2tb X))))
(declare-fun tptp.tb2t (tptp.uni) tptp.list_elt)
(assert (forall ((I tptp.list_elt)) (= (tptp.tb2t (tptp.t2tb I)) I)))
(assert (forall ((J tptp.uni)) (= (tptp.t2tb (tptp.tb2t J)) J)))
(assert (tptp.sorted (tptp.tb2t (tptp.nil tptp.elt1))))
(declare-fun tptp.t2tb1 (tptp.elt) tptp.uni)
(assert (forall ((X tptp.elt)) (tptp.sort tptp.elt1 (tptp.t2tb1 X))))
(declare-fun tptp.tb2t1 (tptp.uni) tptp.elt)
(assert (forall ((I tptp.elt)) (= (tptp.tb2t1 (tptp.t2tb1 I)) I)))
(assert (forall ((J tptp.uni)) (=> (tptp.sort tptp.elt1 J) (= (tptp.t2tb1 (tptp.tb2t1 J)) J))))
(assert (forall ((X tptp.elt)) (tptp.sorted (tptp.tb2t (tptp.cons tptp.elt1 (tptp.t2tb1 X) (tptp.nil tptp.elt1))))))
(assert (forall ((X tptp.elt) (Y tptp.elt) (L tptp.list_elt)) (let ((_let_1 (tptp.cons tptp.elt1 (tptp.t2tb1 Y) (tptp.t2tb L)))) (=> (tptp.le X Y) (=> (tptp.sorted (tptp.tb2t _let_1)) (tptp.sorted (tptp.tb2t (tptp.cons tptp.elt1 (tptp.t2tb1 X) _let_1))))))))
(assert (forall ((Z tptp.list_elt)) (=> (tptp.sorted Z) (or (= Z (tptp.tb2t (tptp.nil tptp.elt1))) (exists ((X tptp.elt)) (= Z (tptp.tb2t (tptp.cons tptp.elt1 (tptp.t2tb1 X) (tptp.nil tptp.elt1))))) (exists ((X tptp.elt) (Y tptp.elt) (L tptp.list_elt)) (let ((_let_1 (tptp.cons tptp.elt1 (tptp.t2tb1 Y) (tptp.t2tb L)))) (and (tptp.le X Y) (tptp.sorted (tptp.tb2t _let_1)) (= Z (tptp.tb2t (tptp.cons tptp.elt1 (tptp.t2tb1 X) _let_1))))))))))
(assert (forall ((X tptp.elt) (L tptp.list_elt)) (= (and (forall ((Y tptp.elt)) (=> (tptp.mem tptp.elt1 (tptp.t2tb1 Y) (tptp.t2tb L)) (tptp.le X Y))) (tptp.sorted L)) (tptp.sorted (tptp.tb2t (tptp.cons tptp.elt1 (tptp.t2tb1 X) (tptp.t2tb L)))))))
(assert (forall ((L1 tptp.list_elt) (L2 tptp.list_elt)) (= (and (tptp.sorted L1) (tptp.sorted L2) (forall ((X tptp.elt) (Y tptp.elt)) (=> (tptp.mem tptp.elt1 (tptp.t2tb1 X) (tptp.t2tb L1)) (=> (tptp.mem tptp.elt1 (tptp.t2tb1 Y) (tptp.t2tb L2)) (tptp.le X Y))))) (tptp.sorted (tptp.tb2t (tptp.infix_plpl tptp.elt1 (tptp.t2tb L1) (tptp.t2tb L2)))))))
(declare-fun tptp.rev_append (tptp.ty tptp.uni tptp.uni) tptp.uni)
(assert (forall ((A tptp.ty) (X tptp.uni) (X1 tptp.uni)) (tptp.sort (tptp.list A) (tptp.rev_append A X X1))))
(assert (forall ((A tptp.ty) (T tptp.uni)) (and (= (tptp.rev_append A (tptp.nil A) T) T) (forall ((X tptp.uni) (R tptp.uni)) (= (tptp.rev_append A (tptp.cons A X R) T) (tptp.rev_append A R (tptp.cons A X T)))))))
(assert (forall ((A tptp.ty) (R tptp.uni) (S tptp.uni) (T tptp.uni)) (= (tptp.rev_append A (tptp.infix_plpl A R S) T) (tptp.rev_append A S (tptp.rev_append A R T)))))
(assert (forall ((A tptp.ty) (R tptp.uni) (S tptp.uni) (T tptp.uni)) (= (tptp.rev_append A R (tptp.infix_plpl A S T)) (tptp.rev_append A (tptp.rev_append A S R) T))))
(assert (forall ((A tptp.ty) (S tptp.uni) (T tptp.uni)) (= (tptp.length A (tptp.rev_append A S T)) (+ (tptp.length A S) (tptp.length A T)))))
(assert (forall ((A tptp.ty) (R tptp.uni) (S tptp.uni)) (= (tptp.rev_append A R S) (tptp.infix_plpl A (tptp.reverse A R) S))))
(assert (forall ((Acc tptp.list_elt) (X1 tptp.elt)) (let ((_let_1 (tptp.t2tb Acc))) (=> (tptp.sorted (tptp.tb2t (tptp.reverse tptp.elt1 _let_1))) (=> (forall ((X tptp.elt)) (=> (tptp.mem tptp.elt1 (tptp.t2tb1 X) (tptp.t2tb Acc)) (tptp.le X X1))) (tptp.sorted (tptp.tb2t (tptp.reverse tptp.elt1 (tptp.cons tptp.elt1 (tptp.t2tb1 X1) _let_1)))))))))
(assert (forall ((Acc tptp.list_elt) (L tptp.list_elt)) (let ((_let_1 (tptp.t2tb Acc))) (=> (tptp.sorted (tptp.tb2t (tptp.reverse tptp.elt1 _let_1))) (=> (tptp.sorted L) (=> (forall ((X tptp.elt) (Y tptp.elt)) (=> (tptp.mem tptp.elt1 (tptp.t2tb1 X) (tptp.t2tb Acc)) (=> (tptp.mem tptp.elt1 (tptp.t2tb1 Y) (tptp.t2tb L)) (tptp.le X Y)))) (tptp.sorted (tptp.tb2t (tptp.reverse tptp.elt1 (tptp.rev_append tptp.elt1 (tptp.t2tb L) _let_1))))))))))
(assert (forall ((X tptp.elt) (L tptp.list_elt)) (=> (tptp.sorted (tptp.tb2t (tptp.reverse tptp.elt1 (tptp.cons tptp.elt1 (tptp.t2tb1 X) (tptp.t2tb L))))) (forall ((Y tptp.elt)) (=> (tptp.mem tptp.elt1 (tptp.t2tb1 Y) (tptp.t2tb L)) (tptp.le Y X))))))
(assert (forall ((X tptp.elt) (L tptp.list_elt)) (let ((_let_1 (tptp.t2tb L))) (=> (tptp.sorted (tptp.tb2t (tptp.reverse tptp.elt1 (tptp.cons tptp.elt1 (tptp.t2tb1 X) _let_1)))) (tptp.sorted (tptp.tb2t (tptp.reverse tptp.elt1 _let_1)))))))
(assert (not (forall ((L1 tptp.list_elt) (L2 tptp.list_elt) (Accu tptp.list_elt)) (=> (and (tptp.sorted Accu) (tptp.sorted (tptp.tb2t (tptp.reverse tptp.elt1 (tptp.t2tb L1)))) (tptp.sorted (tptp.tb2t (tptp.reverse tptp.elt1 (tptp.t2tb L2)))) (forall ((X tptp.elt) (Y tptp.elt)) (=> (tptp.mem tptp.elt1 (tptp.t2tb1 X) (tptp.t2tb Accu)) (=> (tptp.mem tptp.elt1 (tptp.t2tb1 Y) (tptp.t2tb L1)) (tptp.le Y X)))) (forall ((X tptp.elt) (Y tptp.elt)) (=> (tptp.mem tptp.elt1 (tptp.t2tb1 X) (tptp.t2tb Accu)) (=> (tptp.mem tptp.elt1 (tptp.t2tb1 Y) (tptp.t2tb L2)) (tptp.le Y X))))) (forall ((X tptp.elt) (X1 tptp.list_elt)) (=> (= L2 (tptp.tb2t (tptp.cons tptp.elt1 (tptp.t2tb1 X) (tptp.t2tb X1)))) (=> (= L1 (tptp.tb2t (tptp.nil tptp.elt1))) (tptp.sorted (tptp.tb2t (tptp.rev_append tptp.elt1 (tptp.t2tb L2) (tptp.t2tb Accu)))))))))))
(check-sat)
(exit)
